(set-logic HORN)
(declare-fun state (Int (Array Int Int) (Array Int Int) (Array Int Int) (Array Int Int) Int Int (Array Int Int) (Array Int Int) Int Int Int Int Int Int Int Int Int Int Int Int Int Int Int Int Int Int Int Int Int Int Int Int Int Int Int Int Int Int Int Int Int Int Int Int Bool Bool Bool Bool Bool Bool (Array Int Int)) Bool)
(assert (forall ((|A_38| Int) (|B_38| (Array Int Int)) (|C_38| (Array Int Int)) (|D_38| (Array Int Int)) (|E_38| (Array Int Int)) (|F_38| Int) (|G_38| Int) (|H_38| (Array Int Int)) (|I_38| (Array Int Int)) (|J_38| Int) (|K_38| Int) (|L_38| Int) (|M_38| Int) (|N_38| Int) (|O_38| Int) (|P_38| Int) (|Q_38| Int) (|R_38| Int) (|S_38| Int) (|T_38| Int) (|U_38| Int) (|V_38| Int) (|W_38| Int) (|X_38| Int) (|Y_38| Int) (|Z_38| Int) (|A1_38| Int) (|B1_38| Int) (|C1_38| Int) (|D1_38| Int) (|E1_38| Int) (|F1_38| Int) (|G1_38| Int) (|H1_38| Int) (|I1_38| Int) (|J1_38| Int) (|K1_38| Int) (|L1_38| Int) (|M1_38| Int) (|N1_38| Int) (|O1_38| Int) (|P1_38| Int) (|Q1_38| Int) (|R1_38| Int) (|S1_38| Int) (|U1_22| Bool) (|.loc.6| Bool) (|.loc.7| Bool) (|.loc.8| Bool) (|.loc.9| Bool) (|.loc.10| Bool) (|U1_0| (Array Int Int)) (|.x.1720| Int) (|.x.1718| (Array Int Int)) (|.x.1716| Int) (|.x.1714| (Array Int Int)) (|.x.1710| Int) (|.x.1712| (Array Int Int)) (|.x.1711| (Array Int Int)) (|T1_38| Bool) (|.x.1722| Int) (|.x.1723| Int) (|.x.1726| Int) (|.x.1727| Int) (|.x.1732| Int) (|.x.1733| Int) (|.x.1734| Int) (|.x.1736| Int) (|.x.1741| Int) (|.x.1743| Int) (|.x.1744| Int) (|.x.1747| Int) (|.x.1750| Int) (|.x.1751| Int) (|.loc.12| Bool) (|.x.1735| Int) (|.x.1725| Int) (|.x.1739| Int) (|.x.1752| Int) (|.loc.15| Bool) (|.loc.11| Bool) (|.loc.13| Bool) (|.loc.14| Bool) (|.x.1745| Int) (|.x.1740| Int) (|.x.1737| Int) (|.x.1713| (Array Int Int)) (|.x.1738| Int) (|.x.1742| Int) (|.x.1749| Int) (|.x.1746| Int) (|.x.1748| Int) (|.x.1730| Int) (|.x.1753| Int) (|.x.1731| Int) (|.x.1754| Int) (|.x.1728| Int) (|.x.1729| Int) (|.x.1721| Int) (|.x.1724| Int) (|.x.1719| Int) (|.x.1715| Int) (|.x.1717| (Array Int Int)) (|.xtv.1| (Array Int Int))) (=> (and (and (and (and (and .loc.6 (not .loc.7)) (not .loc.8)) (not .loc.9)) (not .loc.10)) (and (and (and (and (and (= D_38 E_38) (not U1_22)) (= F_38 G_38)) (= J_38 K_38)) (= H_38 I_38)) (= B_38 C_38))) (state |A_38| |B_38| |C_38| |D_38| |E_38| |F_38| |G_38| |H_38| |I_38| |J_38| |K_38| |L_38| |M_38| |N_38| |O_38| |P_38| |Q_38| |R_38| |S_38| |T_38| |U_38| |V_38| |W_38| |X_38| |Y_38| |Z_38| |A1_38| |B1_38| |C1_38| |D1_38| |E1_38| |F1_38| |G1_38| |H1_38| |I1_38| |J1_38| |K1_38| |L1_38| |M1_38| |N1_38| |O1_38| |P1_38| |Q1_38| |R1_38| |S1_38| |U1_22| |.loc.6| |.loc.7| |.loc.8| |.loc.9| |.loc.10| |U1_0|))))
(assert (forall ((|A_38| Int) (|B_38| (Array Int Int)) (|C_38| (Array Int Int)) (|D_38| (Array Int Int)) (|E_38| (Array Int Int)) (|F_38| Int) (|G_38| Int) (|H_38| (Array Int Int)) (|I_38| (Array Int Int)) (|J_38| Int) (|K_38| Int) (|L_38| Int) (|M_38| Int) (|N_38| Int) (|O_38| Int) (|P_38| Int) (|Q_38| Int) (|R_38| Int) (|S_38| Int) (|T_38| Int) (|U_38| Int) (|V_38| Int) (|W_38| Int) (|X_38| Int) (|Y_38| Int) (|Z_38| Int) (|A1_38| Int) (|B1_38| Int) (|C1_38| Int) (|D1_38| Int) (|E1_38| Int) (|F1_38| Int) (|G1_38| Int) (|H1_38| Int) (|I1_38| Int) (|J1_38| Int) (|K1_38| Int) (|L1_38| Int) (|M1_38| Int) (|N1_38| Int) (|O1_38| Int) (|P1_38| Int) (|Q1_38| Int) (|R1_38| Int) (|S1_38| Int) (|U1_22| Bool) (|.loc.6| Bool) (|.loc.7| Bool) (|.loc.8| Bool) (|.loc.9| Bool) (|.loc.10| Bool) (|U1_0| (Array Int Int)) (|.x.1720| Int) (|.x.1718| (Array Int Int)) (|.x.1716| Int) (|.x.1714| (Array Int Int)) (|.x.1710| Int) (|.x.1712| (Array Int Int)) (|.x.1711| (Array Int Int)) (|T1_38| Bool) (|.x.1722| Int) (|.x.1723| Int) (|.x.1726| Int) (|.x.1727| Int) (|.x.1732| Int) (|.x.1733| Int) (|.x.1734| Int) (|.x.1736| Int) (|.x.1741| Int) (|.x.1743| Int) (|.x.1744| Int) (|.x.1747| Int) (|.x.1750| Int) (|.x.1751| Int) (|.loc.12| Bool) (|.x.1735| Int) (|.x.1725| Int) (|.x.1739| Int) (|.x.1752| Int) (|.loc.15| Bool) (|.loc.11| Bool) (|.loc.13| Bool) (|.loc.14| Bool) (|.x.1745| Int) (|.x.1740| Int) (|.x.1737| Int) (|.x.1713| (Array Int Int)) (|.x.1738| Int) (|.x.1742| Int) (|.x.1749| Int) (|.x.1746| Int) (|.x.1748| Int) (|.x.1730| Int) (|.x.1753| Int) (|.x.1731| Int) (|.x.1754| Int) (|.x.1728| Int) (|.x.1729| Int) (|.x.1721| Int) (|.x.1724| Int) (|.x.1719| Int) (|.x.1715| Int) (|.x.1717| (Array Int Int)) (|.xtv.1| (Array Int Int))) (=> (and (state |A_38| |B_38| |C_38| |D_38| |E_38| |F_38| |G_38| |H_38| |I_38| |J_38| |K_38| |L_38| |M_38| |N_38| |O_38| |P_38| |Q_38| |R_38| |S_38| |T_38| |U_38| |V_38| |W_38| |X_38| |Y_38| |Z_38| |A1_38| |B1_38| |C1_38| |D1_38| |E1_38| |F1_38| |G1_38| |H1_38| |I1_38| |J1_38| |K1_38| |L1_38| |M1_38| |N1_38| |O1_38| |P1_38| |Q1_38| |R1_38| |S1_38| |U1_22| |.loc.6| |.loc.7| |.loc.8| |.loc.9| |.loc.10| |U1_0|) (let ((.def_62 (not .loc.7))) (let ((.def_64 (not .loc.8))) (let ((.def_66 (not .loc.9))) (let ((.def_68 (not .loc.10))) (let ((.def_100 (= B_38 .x.1711))) (let ((.def_104 (= M_38 .x.1722))) (let ((.def_107 (= N_38 .x.1723))) (let ((.def_110 (= Q_38 .x.1726))) (let ((.def_113 (= R_38 .x.1727))) (let ((.def_116 (= W_38 .x.1732))) (let ((.def_119 (= X_38 .x.1733))) (let ((.def_122 (= Y_38 .x.1734))) (let ((.def_125 (= A1_38 .x.1736))) (let ((.def_128 (= F1_38 .x.1741))) (let ((.def_131 (= H1_38 .x.1743))) (let ((.def_134 (= I1_38 .x.1744))) (let ((.def_137 (= L1_38 .x.1747))) (let ((.def_140 (= O1_38 .x.1750))) (let ((.def_143 (= P1_38 .x.1751))) (let ((.def_145 (not .loc.6))) (let ((.def_161 (= U1_22 T1_38))) (let ((.def_171 (= P_38 0))) (let ((.def_174 (and .def_107 (and .def_100 .def_104)))) (let ((.def_186 (and .def_143 (and .def_140 (and .def_137 (and .def_134 (and .def_131 (and .def_128 (and .def_125 (and .def_122 (and .def_119 (and .def_116 (and .def_113 (and .def_110 .def_174)))))))))))))) (let ((.def_192 (not .loc.12))) (let ((.def_198 (= Z_38 .x.1735))) (let ((.def_200 (= P_38 .x.1725))) (let ((.def_203 (= D1_38 .x.1739))) (let ((.def_206 (= Q1_38 .x.1752))) (let ((.def_211 (not .loc.11))) (let ((.def_214 (not .loc.13))) (let ((.def_217 (not .loc.14))) (let ((.def_223 (select D_38 R_38))) (let ((.def_229 (select D_38 I1_38))) (let ((.def_234 (<= 100000 J1_38))) (let ((.def_255 (not .loc.15))) (let ((.def_260 (= J1_38 .x.1745))) (let ((.def_262 (= E1_38 .x.1740))) (let ((.def_272 (and .def_113 (and .def_110 (and .def_174 .def_200))))) (let ((.def_275 (and .def_122 (and .def_119 (and .def_116 .def_272))))) (let ((.def_300 (and .def_125 (and .def_198 .def_275)))) (let ((.def_305 (and .def_134 (and .def_131 (and .def_128 (and .def_262 (and .def_203 .def_300))))))) (let ((.def_323 (and U1_22 .def_100))) (let ((.def_343 (and .def_206 (and .def_143 (and .def_140 (and .def_137 (and .def_260 (and .def_134 (and .def_131 (and .def_128 (and .def_262 (and .def_203 (and .def_125 (and .def_198 (and .def_122 (and .def_119 (and .def_116 (and .def_113 (and .def_110 (and .def_200 (and .def_107 (and .def_104 .def_323)))))))))))))))))))))) (let ((.def_361 (and .def_206 (and .def_143 (and .def_140 (and .def_137 (and .def_260 .def_305))))))) (let ((.def_390 (and .def_62 (and .def_145 (and .loc.9 (and .loc.8 .def_361)))))) (let ((.def_398 (<= 100000 G1_38))) (let ((.def_399 (or U1_22 .def_398))) (let ((.def_403 (= B1_38 .x.1737))) (let ((.def_405 (= D_38 .x.1713))) (let ((.def_408 (= C1_38 .x.1738))) (let ((.def_411 (= G1_38 .x.1742))) (let ((.def_414 (* 4 G1_38))) (let ((.def_416 (select D_38 H1_38))) (let ((.def_423 (not .def_398))) (let ((.def_436 (or T1_38 (= (+ G1_38 (* (- 1) .x.1742)) (- 1))))) (let ((.def_447 (and .def_113 (and .def_110 (and .def_200 (and .def_107 (and .def_104 (and .def_100 .def_405)))))))) (let ((.def_457 (and .def_128 (and .def_262 (and .def_203 (and .def_408 (and .def_403 (and .def_125 (and .def_198 (and .def_122 (and .def_119 (and .def_116 .def_447)))))))))))) (let ((.def_461 (and .def_260 (and .def_134 (and .def_131 (and .def_411 .def_457)))))) (let ((.def_465 (and .def_206 (and .def_143 (and .def_140 (and .def_137 .def_461)))))) (let ((.def_484 (and .def_113 (and .def_110 (and .def_200 (and .def_107 (and .def_104 (and .def_323 .def_405)))))))) (let ((.def_498 (and .def_260 (and .def_134 (and .def_131 (and .def_411 (and .def_128 (and .def_262 (and .def_203 (and .def_408 (and .def_403 (and .def_125 (and .def_198 (and .def_122 (and .def_119 (and .def_116 .def_484)))))))))))))))) (let ((.def_502 (and .def_206 (and .def_143 (and .def_140 (and .def_137 .def_498)))))) (let ((.def_517 (and .def_260 (and .def_134 (and .def_131 .def_457))))) (let ((.def_534 (or U1_22 (= .x.1742 0)))) (let ((.def_563 (= N1_38 .x.1749))) (let ((.def_565 (= K1_38 .x.1746))) (let ((.def_569 (select D_38 Y_38))) (let ((.def_583 (and .def_260 (and .def_134 (and .def_131 (and .def_128 (and .def_262 (and .def_203 (and .def_408 (and .def_300 .def_403)))))))))) (let ((.def_659 (= M1_38 .x.1748))) (let ((.def_661 (= U_38 .x.1730))) (let ((.def_665 (select D_38 N_38))) (let ((.def_692 (and .def_447 .def_661))) (let ((.def_702 (and .def_128 (and .def_262 (and .def_203 (and .def_408 (and .def_403 (and .def_125 (and .def_198 (and .def_122 (and .def_119 (and .def_116 .def_692)))))))))))) (let ((.def_726 (and .def_484 .def_661))) (let ((.def_785 (= R1_38 .x.1753))) (let ((.def_787 (= V_38 .x.1731))) (let ((.def_791 (select D_38 X_38))) (let ((.def_798 (and .def_272 .def_661))) (let ((.def_843 (and .def_128 (and .def_262 (and .def_203 (and .def_408 (and .def_403 (and .def_125 (and .def_198 (and .def_122 (and .def_119 (and .def_116 (and .def_692 .def_787))))))))))))) (let ((.def_929 (= S1_38 .x.1754))) (let ((.def_931 (= S_38 .x.1728))) (let ((.def_990 (and .def_128 (and .def_262 (and .def_203 (and .def_408 (and .def_403 (and .def_125 (and .def_198 (and .def_122 (and .def_119 (and .def_116 (and .def_787 (and .def_661 (and .def_447 .def_931))))))))))))))) (let ((.def_1054 (<= 100000 O_38))) (let ((.def_1219 (store U1_0 .x.1744 1))) (let ((.def_1220 (store .def_1219 .x.1733 1))) (let ((.def_1227 (store .def_1220 .x.1723 1))) (let ((.def_1231 (store .def_1227 .x.1734 1))) (let ((.def_1235 (store .def_1231 .x.1743 1))) (and (and (= K_38 .x.1720) (and (= I_38 .x.1718) (and (= G_38 .x.1716) (and (= E_38 .x.1714) (and (= A_38 .x.1710) (= C_38 .x.1712)))))) (or (and (or (and (or (or (or (or (and (or (or (or (or (and (or (or (or (or (and (or (or (or (or (and (or (or (or (or (or (or (and (or (or (or (or (or (or (and (or (and (or (and (or (and (and (and (and (and (and (and (and (and (and (and (and (and (and (and (and .def_100 T1_38) .def_104) .def_107) .def_110) .def_113) .def_116) .def_119) .def_122) .def_125) .def_128) .def_131) .def_134) .def_137) .def_140) .def_143) .def_145) (and (or U1_22 (and (= .x.1751 0) (= .x.1711 (store (store (store (store (store (store B_38 I1_38 0) X_38 0) N_38 0) Y_38 0) H1_38 0) R_38 0)))) (and (and .loc.6 (or T1_38 (= .x.1736 .x.1751))) .def_161))) (and (and .def_66 (and .def_64 (and .loc.10 .def_62))) .loc.12)) (and (or U1_22 .def_171) (and .def_68 (and (and .def_161 (and .loc.9 (and .loc.8 (and .loc.7 (and .loc.6 .def_186))))) .def_192)))) (and (and (and (and (and (and (and .def_198 .def_200) .def_203) .def_206) .loc.15) .def_211) .def_214) .def_217)) (and (or U1_22 (and (= .x.1735 (select .def_223 (+ (* 4 J1_38) O1_38))) (and (= .x.1725 .x.1752) (and (= .x.1739 (select .def_229 (+ (* 4 J1_38) L1_38))) (and (not .def_234) (= .x.1752 (ite (= .x.1735 .x.1739) 1 0))))))) (and (and .def_68 (and .def_161 (and .loc.14 (and .loc.13 (and .loc.12 (and .loc.11 (and .def_145 (and .loc.9 (and .loc.8 (and .loc.7 .def_186)))))))))) .def_255))) (and .def_260 .def_262)) (and (or T1_38 (= (+ J1_38 (* (- 1) .x.1745)) (- 1))) (and .def_255 (and .def_68 (and .def_161 (and .def_211 (and .loc.14 (and .loc.13 (and .loc.12 (and .def_66 (and .def_64 (and .def_62 (and .def_145 (and .def_206 (and .def_143 (and .def_140 (and .def_137 (and .def_134 (and .def_131 (and .def_128 (and .def_125 .def_275))))))))))))))))))))) (and (or U1_22 (= .x.1745 0)) (and .def_255 (and .def_68 (and .def_161 (and .def_211 (and .loc.14 (and .loc.13 (and .loc.12 (and .def_62 (and .loc.9 (and .loc.8 (and .loc.6 (and .def_206 (and .def_143 (and .def_140 (and .def_137 .def_305))))))))))))))))) (and .def_68 (and .def_192 (and .def_161 (and .def_217 (and .def_214 (and .loc.15 (and .loc.11 (and .def_145 (and .loc.9 (and .loc.8 (and .loc.7 .def_343)))))))))))) (and (or U1_22 .def_234) (and .def_68 (and .def_192 (and .def_161 (and .def_217 (and .def_214 (and .loc.15 (and .loc.11 (and .def_145 (and .loc.9 (and .loc.8 (and .loc.7 .def_361))))))))))))) (and .def_255 (and .def_68 (and .def_192 (and .def_161 (and .loc.14 (and .loc.13 (and .loc.11 (and .def_62 (and .def_145 (and .loc.9 (and .loc.8 .def_343)))))))))))) (and (and .def_255 (and .def_68 (and .def_192 (and .def_161 (and .loc.14 (and .loc.13 (and .loc.11 .def_390))))))) .def_399)) (and (and (and .def_403 .def_405) .def_408) .def_411)) (and (or U1_22 (and (= .x.1713 (store D_38 R_38 (store .def_223 (+ .def_414 O1_38) (select .def_416 (+ Q_38 .def_414))))) .def_423)) (and (and .def_255 (and .def_68 (and .def_192 (and .def_161 (and .def_211 (and .loc.14 (and .loc.13 .def_390))))))) .def_436))) (and (or U1_22 (not .def_171)) (and .def_255 (and .def_68 (and .def_192 (and .def_161 (and .def_217 (and .def_214 (and .def_211 (and .loc.9 (and .loc.8 (and .loc.7 (and .loc.6 .def_465))))))))))))) (and .def_255 (and .def_192 (and .def_161 (and .def_217 (and .def_214 (and .def_211 (and .def_66 (and .def_64 (and .def_62 (and .def_145 (and .loc.10 .def_502)))))))))))) (and (and .def_255 (and .def_68 (and .def_192 (and .def_161 (and .def_211 (and .loc.14 (and .loc.13 (and .def_64 (and .loc.9 (and .loc.7 (and .loc.6 (and .def_206 (and .def_143 (and .def_140 (and .def_137 .def_517))))))))))))))) .def_534)) (and .def_255 (and .def_68 (and .def_161 (and .def_214 (and .loc.14 (and .loc.12 (and .loc.11 (and .def_64 (and .def_145 (and .loc.9 (and .loc.7 .def_502)))))))))))) (and .def_399 (and .def_255 (and .def_68 (and .def_161 (and .def_214 (and .loc.14 (and .loc.12 (and .loc.11 (and .def_64 (and .def_145 (and .loc.9 (and .loc.7 .def_465))))))))))))) (and .def_563 .def_565)) (and (or U1_22 (and .def_423 (= .x.1713 (store D_38 H1_38 (store .def_416 (+ Q_38 .def_414) (select .def_569 (+ F1_38 .def_414))))))) (and .def_436 (and .def_255 (and .def_68 (and .def_161 (and .def_214 (and .def_211 (and .loc.14 (and .loc.12 (and .def_64 (and .def_145 (and .loc.9 (and .loc.7 (and .def_206 (and .def_143 (and .def_140 (and .def_137 .def_583)))))))))))))))))) (and .def_534 (and .def_255 (and .def_68 (and .def_161 (and .def_214 (and .def_211 (and .loc.14 (and .loc.12 (and .def_64 (and .def_62 (and .loc.9 (and .loc.6 (and .def_206 (and .def_143 (and .def_140 (and .def_563 (and .def_137 (and .def_517 .def_565))))))))))))))))))) (and .def_255 (and .def_68 (and .def_192 (and .def_161 (and .def_214 (and .loc.14 (and .loc.11 (and .def_64 (and .def_62 (and .def_145 (and .loc.9 (and .def_206 (and .def_143 (and .def_140 (and .def_563 (and .def_137 (and .def_498 .def_565)))))))))))))))))) (and .def_399 (and .def_255 (and .def_68 (and .def_192 (and .def_161 (and .def_214 (and .loc.14 (and .loc.11 (and .def_64 (and .def_62 (and .def_145 (and .loc.9 (and .def_206 (and .def_143 (and .def_140 (and .def_563 (and .def_137 (and .def_461 .def_565))))))))))))))))))) (and .def_659 .def_661)) (and (or U1_22 (and .def_423 (= .x.1713 (store D_38 Y_38 (store .def_569 (+ F1_38 .def_414) (select .def_665 (+ W_38 .def_414))))))) (and .def_436 (and .def_255 (and .def_68 (and .def_192 (and .def_161 (and .def_214 (and .def_211 (and .loc.14 (and .def_64 (and .def_62 (and .def_145 (and .loc.9 (and .def_206 (and .def_143 (and .def_140 (and .def_563 (and .def_137 (and .def_565 .def_583)))))))))))))))))))) (and .def_534 (and .def_255 (and .def_68 (and .def_192 (and .def_161 (and .def_214 (and .def_211 (and .loc.14 (and .def_66 (and .loc.8 (and .loc.7 (and .loc.6 (and .def_206 (and .def_143 (and .def_140 (and .def_563 (and .def_659 (and .def_137 (and .def_565 (and .def_260 (and .def_134 (and .def_131 .def_702))))))))))))))))))))))) (and .def_255 (and .def_68 (and .def_161 (and .def_217 (and .loc.13 (and .loc.12 (and .loc.11 (and .def_66 (and .def_145 (and .loc.8 (and .loc.7 (and .def_206 (and .def_143 (and .def_140 (and .def_563 (and .def_659 (and .def_137 (and .def_565 (and .def_260 (and .def_134 (and .def_131 (and .def_411 (and .def_128 (and .def_262 (and .def_203 (and .def_408 (and .def_403 (and .def_125 (and .def_198 (and .def_122 (and .def_119 (and .def_116 .def_726))))))))))))))))))))))))))))))))) (and .def_399 (and .def_255 (and .def_68 (and .def_161 (and .def_217 (and .loc.13 (and .loc.12 (and .loc.11 (and .def_66 (and .def_145 (and .loc.8 (and .loc.7 (and .def_206 (and .def_143 (and .def_140 (and .def_563 (and .def_659 (and .def_137 (and .def_565 (and .def_260 (and .def_134 (and .def_131 (and .def_411 .def_702)))))))))))))))))))))))) (and .def_785 .def_787)) (and (or U1_22 (and .def_423 (= .x.1713 (store D_38 N_38 (store .def_665 (+ W_38 .def_414) (select .def_791 (+ M_38 .def_414))))))) (and .def_436 (and .def_255 (and .def_68 (and .def_161 (and .def_217 (and .def_211 (and .loc.13 (and .loc.12 (and .def_66 (and .def_145 (and .loc.8 (and .loc.7 (and .def_206 (and .def_143 (and .def_140 (and .def_563 (and .def_659 (and .def_137 (and .def_565 (and .def_260 (and .def_134 (and .def_131 (and .def_128 (and .def_262 (and .def_203 (and .def_408 (and .def_403 (and .def_125 (and .def_198 (and .def_122 (and .def_119 (and .def_116 .def_798)))))))))))))))))))))))))))))))))) (and .def_534 (and .def_255 (and .def_68 (and .def_161 (and .def_217 (and .def_211 (and .loc.13 (and .loc.12 (and .def_66 (and .def_62 (and .loc.8 (and .loc.6 (and .def_785 (and .def_206 (and .def_143 (and .def_140 (and .def_563 (and .def_659 (and .def_137 (and .def_565 (and .def_260 (and .def_134 (and .def_131 .def_843)))))))))))))))))))))))) (and .def_255 (and .def_68 (and .def_192 (and .def_161 (and .def_217 (and .loc.13 (and .loc.11 (and .def_66 (and .def_62 (and .def_145 (and .loc.8 (and .def_785 (and .def_206 (and .def_143 (and .def_140 (and .def_563 (and .def_659 (and .def_137 (and .def_565 (and .def_260 (and .def_134 (and .def_131 (and .def_411 (and .def_128 (and .def_262 (and .def_203 (and .def_408 (and .def_403 (and .def_125 (and .def_198 (and .def_122 (and .def_119 (and .def_116 (and .def_726 .def_787))))))))))))))))))))))))))))))))))) (and .def_399 (and .def_255 (and .def_68 (and .def_192 (and .def_161 (and .def_217 (and .loc.13 (and .loc.11 (and .def_66 (and .def_62 (and .def_145 (and .loc.8 (and .def_785 (and .def_206 (and .def_143 (and .def_140 (and .def_563 (and .def_659 (and .def_137 (and .def_565 (and .def_260 (and .def_134 (and .def_131 (and .def_411 .def_843))))))))))))))))))))))))) (and .def_929 .def_931)) (and (or U1_22 (and .def_423 (= .x.1713 (store D_38 X_38 (store .def_791 (+ M_38 .def_414) (select .def_229 (+ .def_414 L1_38))))))) (and .def_436 (and .def_255 (and .def_68 (and .def_192 (and .def_161 (and .def_217 (and .def_211 (and .loc.13 (and .def_66 (and .def_62 (and .def_145 (and .loc.8 (and .def_785 (and .def_206 (and .def_143 (and .def_140 (and .def_563 (and .def_659 (and .def_137 (and .def_565 (and .def_260 (and .def_134 (and .def_131 (and .def_128 (and .def_262 (and .def_203 (and .def_408 (and .def_403 (and .def_125 (and .def_198 (and .def_122 (and .def_119 (and .def_116 (and .def_787 .def_798)))))))))))))))))))))))))))))))))))) (and .def_534 (and .def_255 (and .def_68 (and .def_192 (and .def_161 (and .def_217 (and .def_211 (and .loc.13 (and .def_66 (and .def_64 (and .loc.7 (and .loc.6 (and .def_929 (and .def_785 (and .def_206 (and .def_143 (and .def_140 (and .def_563 (and .def_659 (and .def_137 (and .def_565 (and .def_260 (and .def_134 (and .def_131 .def_990))))))))))))))))))))))))) (and .def_255 (and .def_68 (and .def_161 (and .def_217 (and .def_214 (and .loc.12 (and .loc.11 (and .def_66 (and .def_64 (and .def_145 (and .loc.7 (and .def_929 (and .def_785 (and .def_206 (and .def_143 (and .def_140 (and .def_563 (and .def_659 (and .def_137 (and .def_565 (and .def_260 (and .def_134 (and .def_131 (and .def_411 (and .def_128 (and .def_262 (and .def_203 (and .def_408 (and .def_403 (and .def_125 (and .def_198 (and .def_122 (and .def_119 (and .def_116 (and .def_787 (and .def_661 (and .def_484 .def_931)))))))))))))))))))))))))))))))))))))) (and (or U1_22 .def_1054) (and .def_255 (and .def_68 (and .def_161 (and .def_217 (and .def_214 (and .loc.12 (and .loc.11 (and .def_66 (and .def_64 (and .def_145 (and .loc.7 (and .def_929 (and .def_785 (and .def_206 (and .def_143 (and .def_140 (and .def_563 (and .def_659 (and .def_137 (and .def_565 (and .def_260 (and .def_134 (and .def_131 (and .def_411 .def_990)))))))))))))))))))))))))) (and (= T_38 .x.1729) (and (= L_38 .x.1721) (= O_38 .x.1724)))) (and (or U1_22 (and (= .x.1713 (store D_38 I1_38 (store .def_229 (+ (* 4 O_38) L1_38) L_38))) (and (<= (- 2147483648) L_38) (and (<= L_38 2147483647) (not .def_1054))))) (and (or T1_38 (= (+ O_38 (* (- 1) .x.1724)) (- 1))) (and .def_255 (and .def_68 (and .def_161 (and .def_217 (and .def_214 (and .def_211 (and .loc.12 (and .def_66 (and .def_64 (and .def_145 (and .loc.7 (and .def_929 (and .def_785 (and .def_206 (and .def_143 (and .def_140 (and .def_563 (and .def_659 (and .def_137 (and .def_565 (and .def_260 (and .def_134 (and .def_131 (and .def_411 (and .def_128 (and .def_262 (and .def_203 (and .def_408 (and .def_403 (and .def_125 (and .def_198 (and .def_122 (and .def_119 (and .def_116 (and .def_787 (and .def_661 (and .def_272 .def_931)))))))))))))))))))))))))))))))))))))))) (and (= J_38 .x.1719) (and (= F_38 .x.1715) (= H_38 .x.1717)))) (and (or U1_22 (and (and (= .x.1719 0) (= .x.1715 0)) (= U1_0 (store B_38 0 0)))) (and (or T1_38 (and (and (and (and (and (and (and (and (and (and (and (and (and (and (and (and (and (and (and (and (and (and (and (and (and (and (not (<= .x.1710 .x.1727)) (not (<= .x.1710 .x.1723))) (not (<= .x.1710 .x.1733))) (not (<= .x.1710 .x.1734))) (not (<= .x.1710 .x.1743))) (not (<= .x.1710 .x.1744))) (= .x.1722 0)) (= .x.1724 0)) (= .x.1726 0)) (not (= .x.1727 0))) (= .x.1732 0)) (not (= .x.1734 0))) (= .x.1741 0)) (not (= .x.1743 0))) (= .x.1750 0)) (= .x.1747 0)) (not (= .x.1723 0))) (not (= .x.1733 0))) (not (= .x.1744 0))) (= (select U1_0 .x.1744) 0)) (= (select .def_1220 .x.1723) 0)) (= (select .def_1219 .x.1733) 0)) (= (select .def_1227 .x.1734) 0)) (= (select .def_1231 .x.1743) 0)) (= (select .def_1235 .x.1727) 0)) (= .x.1717 (store (store (store (store (store (store H_38 .x.1744 400000) .x.1733 400000) .x.1723 400000) .x.1734 400000) .x.1743 400000) .x.1727 400000))) (= .x.1711 (store .def_1235 .x.1727 1)))) (and .def_255 (and .def_68 (and .def_161 (and .def_217 (and .def_214 (and .def_211 (and .loc.12 (and .def_66 (and .def_64 (and .def_62 (and .loc.6 (and .def_206 (and .def_125 (and .def_200 .def_405)))))))))))))))))))))))))))))))))))))))))))))))))))))))))))))))))))))))))))))))))))))))))))))))))))))))))))) (state |.x.1710| |.x.1711| |.x.1712| |.x.1713| |.x.1714| |.x.1715| |.x.1716| |.x.1717| |.x.1718| |.x.1719| |.x.1720| |.x.1721| |.x.1722| |.x.1723| |.x.1724| |.x.1725| |.x.1726| |.x.1727| |.x.1728| |.x.1729| |.x.1730| |.x.1731| |.x.1732| |.x.1733| |.x.1734| |.x.1735| |.x.1736| |.x.1737| |.x.1738| |.x.1739| |.x.1740| |.x.1741| |.x.1742| |.x.1743| |.x.1744| |.x.1745| |.x.1746| |.x.1747| |.x.1748| |.x.1749| |.x.1750| |.x.1751| |.x.1752| |.x.1753| |.x.1754| |T1_38| |.loc.11| |.loc.12| |.loc.13| |.loc.14| |.loc.15| |.xtv.1|))))
(assert (forall ((|A_38| Int) (|B_38| (Array Int Int)) (|C_38| (Array Int Int)) (|D_38| (Array Int Int)) (|E_38| (Array Int Int)) (|F_38| Int) (|G_38| Int) (|H_38| (Array Int Int)) (|I_38| (Array Int Int)) (|J_38| Int) (|K_38| Int) (|L_38| Int) (|M_38| Int) (|N_38| Int) (|O_38| Int) (|P_38| Int) (|Q_38| Int) (|R_38| Int) (|S_38| Int) (|T_38| Int) (|U_38| Int) (|V_38| Int) (|W_38| Int) (|X_38| Int) (|Y_38| Int) (|Z_38| Int) (|A1_38| Int) (|B1_38| Int) (|C1_38| Int) (|D1_38| Int) (|E1_38| Int) (|F1_38| Int) (|G1_38| Int) (|H1_38| Int) (|I1_38| Int) (|J1_38| Int) (|K1_38| Int) (|L1_38| Int) (|M1_38| Int) (|N1_38| Int) (|O1_38| Int) (|P1_38| Int) (|Q1_38| Int) (|R1_38| Int) (|S1_38| Int) (|U1_22| Bool) (|.loc.6| Bool) (|.loc.7| Bool) (|.loc.8| Bool) (|.loc.9| Bool) (|.loc.10| Bool) (|U1_0| (Array Int Int)) (|.x.1720| Int) (|.x.1718| (Array Int Int)) (|.x.1716| Int) (|.x.1714| (Array Int Int)) (|.x.1710| Int) (|.x.1712| (Array Int Int)) (|.x.1711| (Array Int Int)) (|T1_38| Bool) (|.x.1722| Int) (|.x.1723| Int) (|.x.1726| Int) (|.x.1727| Int) (|.x.1732| Int) (|.x.1733| Int) (|.x.1734| Int) (|.x.1736| Int) (|.x.1741| Int) (|.x.1743| Int) (|.x.1744| Int) (|.x.1747| Int) (|.x.1750| Int) (|.x.1751| Int) (|.loc.12| Bool) (|.x.1735| Int) (|.x.1725| Int) (|.x.1739| Int) (|.x.1752| Int) (|.loc.15| Bool) (|.loc.11| Bool) (|.loc.13| Bool) (|.loc.14| Bool) (|.x.1745| Int) (|.x.1740| Int) (|.x.1737| Int) (|.x.1713| (Array Int Int)) (|.x.1738| Int) (|.x.1742| Int) (|.x.1749| Int) (|.x.1746| Int) (|.x.1748| Int) (|.x.1730| Int) (|.x.1753| Int) (|.x.1731| Int) (|.x.1754| Int) (|.x.1728| Int) (|.x.1729| Int) (|.x.1721| Int) (|.x.1724| Int) (|.x.1719| Int) (|.x.1715| Int) (|.x.1717| (Array Int Int)) (|.xtv.1| (Array Int Int))) (=> (state |A_38| |B_38| |C_38| |D_38| |E_38| |F_38| |G_38| |H_38| |I_38| |J_38| |K_38| |L_38| |M_38| |N_38| |O_38| |P_38| |Q_38| |R_38| |S_38| |T_38| |U_38| |V_38| |W_38| |X_38| |Y_38| |Z_38| |A1_38| |B1_38| |C1_38| |D1_38| |E1_38| |F1_38| |G1_38| |H1_38| |I1_38| |J1_38| |K1_38| |L1_38| |M1_38| |N1_38| |O1_38| |P1_38| |Q1_38| |R1_38| |S1_38| |U1_22| |.loc.6| |.loc.7| |.loc.8| |.loc.9| |.loc.10| |U1_0|) (not (and U1_22 (and .loc.10 (and (not .loc.9) (and (not .loc.8) (and .loc.7 (not .loc.6))))))))))
(check-sat)
